HFSDDW
15	8	4
0	15	1	95	2	38	3	9
0	39	1	13	2	90	3	89
0	51	1	53	2	49	3	91
0	35	1	21	2	5	3	59
0	88	1	41	2	42	3	54
0	35	1	78	2	50	3	40
0	59	1	47	2	84	3	87
0	87	1	21	2	12	3	42
0	40	1	26	2	1	3	72
0	34	1	82	2	78	3	64
0	45	1	4	2	93	3	43
0	12	1	32	2	67	3	12
0	85	1	76	2	95	3	96
0	8	1	62	2	63	3	37
0	45	1	98	2	50	3	92
LBCmax: 525
RELDUE
-1	291	3	8
-1	264	1	3
-1	265	3	8
-1	293	7	1
-1	305	1	3
-1	270	2	4
-1	315	8	6
-1	272	6	3
-1	284	4	3
-1	296	8	4
-1	288	4	1
-1	267	6	1
-1	328	1	8
-1	345	6	9
-1	271	5	5
DDW
236	346
246	282
249	281
261	325
284	326
240	300
290	340
231	313
270	298
287	305
253	323
214	320
266	390
338	352
255	287
